09-routing/solutions/XSH-n20-k4-48.opt.sol
Route #1: 12 19 20
Route #2: 6 4 3 11 15 5 2
Route #3: 17 10 14 8 13 1
Route #4: 7 18 16 9
Cost 544
